************************************************************************
file with basedata            : md348_.bas
initial value random generator: 635871055
************************************************************************
projects                      :  1
jobs (incl. supersource/sink ):  22
horizon                       :  167
RESOURCES
  - renewable                 :  2   R
  - nonrenewable              :  2   N
  - doubly constrained        :  0   D
************************************************************************
PROJECT INFORMATION:
pronr.  #jobs rel.date duedate tardcost  MPM-Time
    1     20      0       26        7       26
************************************************************************
PRECEDENCE RELATIONS:
jobnr.    #modes  #successors   successors
   1        1          3           2   3   4
   2        3          3           5   7  11
   3        3          3           5  12  15
   4        3          3           8  13  17
   5        3          2           6  20
   6        3          1          19
   7        3          3           9  10  14
   8        3          2           9  10
   9        3          2          15  19
  10        3          1          16
  11        3          2          13  14
  12        3          3          14  16  17
  13        3          1          16
  14        3          2          18  21
  15        3          1          21
  16        3          2          20  21
  17        3          1          18
  18        3          2          19  20
  19        3          1          22
  20        3          1          22
  21        3          1          22
  22        1          0        
************************************************************************
REQUESTS/DURATIONS:
jobnr. mode duration  R 1  R 2  N 1  N 2
------------------------------------------------------------------------
  1      1     0       0    0    0    0
  2      1     3      10    0    9    0
         2     8       0    5    7    0
         3     9       8    0    0    3
  3      1     4       0    8    0    2
         2     4       6    0    3    0
         3     5       4    0    0    2
  4      1     8       9    0    8    0
         2     8       0    1    7    0
         3    10       8    0    5    0
  5      1     1       0    7    7    0
         2     1       3    0    0    3
         3     2       2    0    0    3
  6      1     4       4    0    1    0
         2     6       0    9    1    0
         3     8       0    6    1    0
  7      1     1      10    0    0    9
         2     5       9    0    0    7
         3    10       7    0    3    0
  8      1     5       0    8    0    4
         2     7       8    0    0    4
         3    10       6    0    0    3
  9      1     6      10    0    6    0
         2     7       8    0    6    0
         3     8       7    0    5    0
 10      1     1       5    0    9    0
         2     9       0    6    9    0
         3    10       2    0    7    0
 11      1     1       4    0    9    0
         2     5       0    8    4    0
         3     6       0    6    4    0
 12      1     3       0    7    4    0
         2     3       6    0    3    0
         3    10       0    8    0    4
 13      1     5       5    0    6    0
         2     6       0    3    4    0
         3    10       5    0    3    0
 14      1     2       6    0    8    0
         2     7       0    6    5    0
         3    10       0    3    0    2
 15      1     3       0    6    0    5
         2     4       5    0    9    0
         3     9       5    0    0    2
 16      1     7       0    9    4    0
         2     9       0    3    0    5
         3     9       5    0    0   10
 17      1     3       0    3    4    0
         2     6       0    3    0   10
         3     6       3    0    3    0
 18      1     7       9    0    0    8
         2    10       0    6    6    0
         3    10       8    0    0    7
 19      1     6       0    7    0    6
         2     8       0    7    7    0
         3    10       8    0    6    0
 20      1     1       6    0    0    9
         2     7       6    0    3    0
         3     8       5    0    0    7
 21      1     4       0    1    0    1
         2     7       9    0    3    0
         3     7       8    0    0    1
 22      1     0       0    0    0    0
************************************************************************
RESOURCEAVAILABILITIES:
  R 1  R 2  N 1  N 2
   29   33  109   76
************************************************************************
MAXIMAL LAGS:
from  to  type  delay
    1   22   ES      0
    1    2   ES      0
    2   22   ES      0
    1    3   ES      0
    3   22   ES      0
    1    4   ES      0
    4   22   ES      0
    1    5   ES      0
    5   22   ES      0
    1    6   ES      0
    6   22   ES      0
    1    7   ES      0
    7   22   ES      0
    1    8   ES      0
    8   22   ES      0
    1    9   ES      0
    9   22   ES      0
    1   10   ES      0
   10   22   ES      0
    1   11   ES      0
   11   22   ES      0
    1   12   ES      0
   12   22   ES      0
    1   13   ES      0
   13   22   ES      0
    1   14   ES      0
   14   22   ES      0
    1   15   ES      0
   15   22   ES      0
    1   16   ES      0
   16   22   ES      0
    1   17   ES      0
   17   22   ES      0
    1   18   ES      0
   18   22   ES      0
    1   19   ES      0
   19   22   ES      0
    1   20   ES      0
   20   22   ES      0
    1   21   ES      0
   21   22   ES      0
    1   22   ES      0
    2    5   SS     -8
    2    5   SE     -6
    2    5   ES      3
    2    5   EE     -3
    2    7   SS    -11
    2    7   SE      3
    2    7   ES      3
    2    7   EE      6
    2   11   SS     -4
    2   11   SE     -5
    2   11   ES     -5
    2   11   EE     -7
    3    5   SS     12
    3    5   SE     -2
    3    5   ES      1
    3    5   EE     -7
    3   12   SS     -6
    3   12   SE     11
    3   12   ES     10
    3   12   EE      4
    3   15   SS      9
    3   15   SE      6
    3   15   ES      7
    3   15   EE     -3
    4    8   SS      6
    4    8   SE      6
    4    8   ES     -9
    4    8   EE      7
    4   13   SS      2
    4   13   SE    -12
    4   13   ES    -10
    4   13   EE     10
    4   17   SS     -4
    4   17   SE     -7
    4   17   ES      1
    4   17   EE      9
    5    6   SS     -8
    5    6   SE    -12
    5    6   ES     -6
    5    6   EE      2
    5   20   SS    -11
    5   20   SE      4
    5   20   ES      2
    5   20   EE      5
    6   19   SS     -7
    6   19   SE     -9
    6   19   ES    -10
    6   19   EE      1
    7    9   SS    -11
    7    9   SE     -7
    7    9   ES      9
    7    9   EE      9
    7   10   SS      9
    7   10   SE    -12
    7   10   ES      8
    7   10   EE      9
    7   14   SS      8
    7   14   SE     -4
    7   14   ES     -9
    7   14   EE      5
    8    9   SS    -10
    8    9   SE     -5
    8    9   ES     -1
    8    9   EE      9
    8   10   SS     10
    8   10   SE     12
    8   10   ES      7
    8   10   EE      6
    9   15   SS      4
    9   15   SE      7
    9   15   ES      4
    9   15   EE     12
    9   19   SS      6
    9   19   SE      2
    9   19   ES     -8
    9   19   EE     -9
   10   16   SS    -10
   10   16   SE      2
   10   16   ES    -12
   10   16   EE     11
   11   13   SS      5
   11   13   SE      4
   11   13   ES      8
   11   13   EE      6
   11   14   SS     -3
   11   14   SE      9
   11   14   ES      4
   11   14   EE    -12
   12   14   SS    -10
   12   14   SE      5
   14   12   SE      0
   12   14   ES      0
   12   14   EE     -4
   12   16   SS     -3
   12   16   SE      5
   12   16   ES     -8
   12   16   EE     -7
   12   17   SS     12
   12   17   SE     -9
   12   17   ES      2
   12   17   EE     -1
   13   16   SS      4
   13   16   SE      4
   13   16   ES     11
   13   16   EE     -5
   14   18   SS      6
   14   18   SE      2
   14   18   ES      4
   14   18   EE     -1
   14   21   SS      2
   14   21   SE    -12
   14   21   ES      5
   14   21   EE     -7
   15   21   SS    -11
   15   21   SE    -12
   15   21   ES     -4
   15   21   EE      5
   16   20   SS    -11
   16   20   SE      1
   16   20   ES      3
   16   20   EE     -2
   16   21   SS      3
   16   21   SE      9
   16   21   ES    -10
   16   21   EE     -7
   17   18   SS     -6
   17   18   SE      0
   17   18   ES      6
   17   18   EE    -10
   18   19   SS     -3
   18   19   SE      7
   18   19   ES      0
   18   19   EE    -10
   18   20   SS     12
   18   20   SE      8
   18   20   ES      9
   18   20   EE    -10
************************************************************************
